Route #1: 102 104 7 153 12 46 145 140 22 23 206 154 211 158 24 72 89 103 82 14 38 156 1 181 186 114
Route #2: 124 74 5 52 208 19 126 36 43 152 151 65 192 199 115 105 175 111 176 26 11 16 6
Route #3: 205 117 143 180 88 191 59 131 62 189 188 2 120 113 196 3 68 163 58 210 21 9 63 71 35 184
Route #4: 67 130 194 159 171 164 122 60 13 136 25 81 141 31 144 99 50 39 54 148 204 172 201
Route #5: 166 190 80 132 187 87 183 165 168 170 146 108 173 84 162 86 182 160 149 178 167 161 169 155 119
Route #6: 17 64 51 100 127 123 101 197 27 195 207 121 135 177 179 116 61 137 97 98 202 109 53
Route #7: 8 85 125 112 94 95 134 128 133 93 209 174 77 45 185 79 147 200 18 73 96 107
Route #8: 40 42 78 66 110 150 57 70 90 69 55 48 203 37 15 30 41 193 76 75 83 32 33
Route #9: 129 29 198 4 28 142 157 49 91 56 106 44 34 118 10 92 47 20 139 138
Cost 84576
Time 474.718
